
Gurobi 9.5.0 (mac64[x86]) logging started Wed 14 Sep 14:47:28 2022

Set parameter LogFile to value "/Users/nikitabelyak/Dropbox (Aalto)/TSEP/Nordic_case_study/2022 data/optimisation_results/14_Sep_2022_14_47_28.log"
Set parameter Threads to value 6
